InboundTrucks  = 20;
OutboundTrucks = 13;
InboundDoors   = 2;
OutboundDoors  = 1;
ReleaseTime    = [9,15,7,10,13,9,2,15,0,4,17,13,0,19,9,0,10,9,11,4];
UnloadTime     = [12,3,10,12,5,3,5,10,5,7,3,2,11,2,4,5,4,3,11,1];
LoadTime       = [11,3,8,12,3,3,10,12,6,4,7,5,12];
TransferTime   = [| 0,0,1,2,0,0,0,0,0,2,0,1,1 | 0,2,0,0,2,1,2,0,0,0,1,0,2 | 0,0,1,2,2,0,0,0,2,2,0,1,0 | 0,1,0,0,0,0,1,0,2,2,0,1,1 | 1,0,0,1,0,0,0,0,0,0,4,5,4 | 0,0,0,0,4,3,1,0,0,0,0,0,0 | 0,2,0,2,1,0,3,0,0,0,0,0,0 | 5,0,0,0,0,2,0,0,0,0,0,4,5 | 4,0,0,0,0,0,0,5,3,5,0,0,0 | 0,0,2,0,0,0,1,0,0,0,0,0,1 | 1,0,0,0,0,0,1,1,0,1,0,0,1 | 4,0,0,0,1,0,0,5,0,0,0,0,2 | 0,1,0,0,2,0,0,0,0,0,0,4,0 | 5,0,0,0,0,0,0,0,1,0,0,0,0 | 0,0,0,1,3,0,0,0,2,1,0,1,2 | 0,0,2,0,0,0,0,0,0,1,0,0,0 | 2,0,4,0,0,0,0,2,0,0,4,0,5 | 1,0,0,0,4,0,0,0,0,0,0,3,0 | 0,0,1,5,0,0,3,0,3,2,2,0,0 | 3,0,0,0,5,0,0,0,0,0,0,1,0 |];
